Name:		mgval_0.45_6B
Optimal value:	210
#Vehicles:	4
Capacity:	120
Depot Node:	1
#Nodes:		31
#Edges:		22
#Arcs:		44
#Required N:	22
#Required E:	12
#Required A:	24

ReN.	DEMAND	S. COST
N2	7	7
N3	11	11
N6	9	9
N7	13	13
N8	27	27
N9	18	18
N11	12	12
N12	14	14
N13	7	7
N14	3	3
N15	4	4
N18	12	12
N19	4	4
N20	11	11
N21	18	18
N23	7	7
N24	2	2
N26	7	7
N28	4	4
N29	5	5
N30	12	12
N31	2	2

ReE.	FROM N.	TO N.	T. COST	DEMAND	S. COST
E11	1	2	2	5	5
E12	2	3	1	14	14
E13	11	12	5	9	9
E14	23	24	3	10	10
E15	19	20	4	12	12
E16	4	13	3	8	8
E17	11	17	4	10	10
E18	5	10	4	10	10
E19	12	18	5	12	12
E20	6	31	3	9	9
E21	19	22	2	9	9
E22	10	16	2	8	8

EDGE	FROM N.	TO N.	T. COST
NrE1	1	30	4
NrE2	18	19	5
NrE3	23	25	3
NrE4	6	7	3
NrE5	28	31	3
NrE6	1	7	10
NrE7	3	9	2
NrE8	20	22	5
NrE9	21	22	4
NrE10	9	13	6

ReA.	FROM N.	TO N.	T. COST	DEMAND	S. COST
A21	29	30	7	10	10
A22	28	26	5	7	7
A23	16	15	3	8	8
A24	27	24	2	3	3
A25	10	11	4	5	5
A26	13	19	6	7	7
A27	28	25	5	6	6
A28	11	10	4	5	5
A29	23	26	2	3	3
A30	17	16	2	5	5
A31	21	18	3	4	4
A32	4	3	5	6	6
A33	25	28	5	6	6
A34	29	28	3	9	9
A35	1	31	3	2	2
A36	27	26	1	2	2
A37	29	27	2	4	4
A38	16	17	2	4	4
A39	14	10	1	4	4
A40	26	23	2	3	3
A41	19	13	6	7	7
A42	27	29	2	4	4
A43	5	31	1	4	4
A44	6	5	3	8	8

ARC	FROM N.	TO N.	T. COST
NrA1	13	12	4
NrA2	9	8	7
NrA3	21	19	3
NrA4	14	15	5
NrA5	26	28	5
NrA6	2	8	6
NrA7	3	4	5
NrA8	19	21	3
NrA9	8	9	7
NrA10	29	31	2
NrA11	18	21	3
NrA12	8	2	6
NrA13	31	1	3
NrA14	12	8	8
NrA15	9	4	9
NrA16	15	14	5
NrA17	11	6	2
NrA18	24	27	2
NrA19	26	27	1
NrA20	8	7	3
